87 650
502 140
93 65
368 14
528 45
32 74
370 130
462 141
187 22
137 85
326 107
242 57
96 143
258 46
224 4
311 7
278 112
171 92
196 155
458 153
138 149
307 7
7 123
405 115
184 107
25 117
154 148
132 105
521 61
193 88
158 34
197 96
518 2
347 25
340 55
391 129
212 118
227 56
356 102
1 7
106 27
183 161
131 48
349 65
207 90
478 48
311 78
227 40
220 8
384 30
229 86
362 12
26 66
244 54
142 68
87 17
289 149
267 78
307 138
413 160
483 57
271 79
171 115
255 70
442 50
478 120
444 146
103 150
546 103
346 62
46 159
397 105
539 11
220 14
371 123
173 10
117 2
392 65
2 85
450 74
289 80
54 96
65 111
355 69
478 61
153 162
535 43
55 127
